NAME : coverage_path
TYPE : ATSP
DIMENSION : 6
EDGE_WEIGHT_TYPE : EXPLICIT
EDGE_WEIGHT_FORMAT : FULL_MATRIX
EDGE_WEIGHT_SECTION
0 200723 201078 144 200811 201183 
0 0 341 1281 972 697 
0 341 0 1828 1314 500 
0 1281 1828 0 186 699 
0 972 1314 186 0 1248 
0 697 500 699 1248 0 
EOF